Disappointment = array1d(1..15, [10, 10, 10, 10, 20, 10, 5, 10, 10, 5, 5, 5, 5, 5, 5]);
Lower = array1d(1..15, [5, 5, 3, 10, 10, 10, 5, 10, 10, 3, 3, 3, 3, 5, 5]);
Upper = array1d(1..15, [10, 10, 6, 20, 20, 20, 10, 20, 20, 6, 6, 6, 6, 10, 10]);
DailyRate = array1d(1..15, [20, 20, 10, 30, 30, 30, 10, 10, 20, 5, 5, 5, 5, 10, 10]);
Parallel = array1d(1..15, [2, 2, 2, 2, 2, 2, 2, 2, 2, 2, 2, 2, 2, 2, 2]);